Maximize
 0
Subject To
 epc_0!1: +35.835361724331705 y_1!1_2!1 +20.565745117735617 y_1!2_2!1 +16.668124323482814 y_1!3_2!1 -21.13294780845905 y_1!4_2!1 -50.69170253627446 y_1!5_2!1 +2.3759536977807585 y_1!6_2!1 -21.10242298319585 y_1!1_2!2 +80.98871648405498 y_1!2_2!2 +8.04184981123997 y_1!3_2!2 -76.07631598278985 y_1!4_2!2 +8.62897316271048 y_1!5_2!2 -54.1055679265729 y_1!6_2!2 -8.827701441707731 y_1!1_2!3 -60.40401458892517 y_1!2_2!3 +36.95965686312576 y_1!3_2!3 -57.77497890044889 y_1!4_2!3 +29.73248217090233 y_1!5_2!3 -86.67462817366906 y_1!6_2!3 -38.684608123910365 y_1!1_2!4 +57.07034509964839 y_1!2_2!4 -70.43843767526378 y_1!3_2!4 -55.83624162578662 y_1!4_2!4 -2.825180306226784 y_1!5_2!4 +16.861896471903265 y_1!6_2!4 -63.58554746602702 y_1!1_2!5 -4.811102225950776 y_1!2_2!5 -52.61579004351531 y_1!3_2!5 -56.7616006709238 y_1!4_2!5 -93.44778253651742 y_1!5_2!5 -98.47542943485945 y_1!6_2!5 -22.656185364969517 y_1!1_2!6 +44.66593178134306 y_1!2_2!6 +96.09469661468077 y_1!3_2!6 +83.25584331305032 y_1!4_2!6 -65.65296018880903 y_1!5_2!6 +94.59359069434649 y_1!6_2!6 + lambda_0!1 - mu_0 = 0
 epc_0!2: +60.77380389234003 y_1!1_2!1 -81.98571482144057 y_1!2_2!1 +88.8283157029403 y_1!3_2!1 -97.74260230023522 y_1!4_2!1 +21.416243255598104 y_1!5_2!1 +66.61885079997253 y_1!6_2!1 +87.23286916859797 y_1!1_2!2 -85.54009289536506 y_1!2_2!2 -4.7239810920194145 y_1!3_2!2 -1.3329293891635672 y_1!4_2!2 -74.18430349673375 y_1!5_2!2 +75.92289895717249 y_1!6_2!2 -98.1139633003894 y_1!1_2!3 -78.76150070854774 y_1!2_2!3 -33.15717826831295 y_1!3_2!3 -88.79882543423281 y_1!4_2!3 -26.58739883946606 y_1!5_2!3 -82.60168372782992 y_1!6_2!3 -74.20778586611556 y_1!1_2!4 -59.263440145782354 y_1!2_2!4 -91.25961491596641 y_1!3_2!4 +62.8830458399826 y_1!4_2!4 +86.23588533254477 y_1!5_2!4 +92.81335121991131 y_1!6_2!4 +57.15944982225457 y_1!1_2!5 -55.541430238685344 y_1!2_2!5 +16.58965429870092 y_1!3_2!5 +95.70175428130082 y_1!4_2!5 +88.68555461768233 y_1!5_2!5 +49.48179237528001 y_1!6_2!5 +70.76184132353563 y_1!1_2!6 -55.47942697653594 y_1!2_2!6 +58.04504470302402 y_1!3_2!6 -53.8028480362708 y_1!4_2!6 +4.7321169863880215 y_1!5_2!6 -12.649640088120833 y_1!6_2!6 + lambda_0!2 - mu_0 = 0
 epc_0!3: -22.09626887382541 y_1!1_2!1 +70.09612773132557 y_1!2_2!1 +57.94026802238403 y_1!3_2!1 -88.63682597669553 y_1!4_2!1 -10.714764816944978 y_1!5_2!1 +8.098454385159258 y_1!6_2!1 -39.56544094301344 y_1!1_2!2 +42.140374551058414 y_1!2_2!2 +39.433851805675346 y_1!3_2!2 +87.2237128811474 y_1!4_2!2 +46.23415198031546 y_1!5_2!2 -48.29635154630898 y_1!6_2!2 +78.96940252895467 y_1!1_2!3 +48.27584618216912 y_1!2_2!3 +77.85309442589684 y_1!3_2!3 -5.9810025812968775 y_1!4_2!3 -48.78803651685379 y_1!5_2!3 -86.9684504189687 y_1!6_2!3 +35.244854433884086 y_1!1_2!4 -10.870341135975764 y_1!2_2!4 +12.415193956664396 y_1!3_2!4 -2.481301149006015 y_1!4_2!4 +72.95583266761355 y_1!5_2!4 -67.95393490661039 y_1!6_2!4 +69.78534014759128 y_1!1_2!5 +38.58816193109669 y_1!2_2!5 +89.20513102921626 y_1!3_2!5 -34.68009971710913 y_1!4_2!5 +38.067108748376654 y_1!5_2!5 -52.939637424406946 y_1!6_2!5 -67.32813939181989 y_1!1_2!6 -46.41655322328147 y_1!2_2!6 -34.52229589903159 y_1!3_2!6 -49.27219579068232 y_1!4_2!6 -77.22878696282957 y_1!5_2!6 +48.33556788724795 y_1!6_2!6 + lambda_0!3 - mu_0 = 0
 epc_0!4: +11.28314749355026 y_1!1_2!1 +85.99344429982571 y_1!2_2!1 +17.437637019476753 y_1!3_2!1 -71.22245675050232 y_1!4_2!1 -19.926570188686 y_1!5_2!1 -41.5581716982437 y_1!6_2!1 -11.03100733711733 y_1!1_2!2 -22.147631781551212 y_1!2_2!2 +48.66336299786698 y_1!3_2!2 -47.62957025653327 y_1!4_2!2 -67.03560587653163 y_1!5_2!2 +77.44678563035498 y_1!6_2!2 +38.95824264423223 y_1!1_2!3 -84.55315547957747 y_1!2_2!3 +17.137530953330057 y_1!3_2!3 +40.92170037915699 y_1!4_2!3 -31.476604738030716 y_1!5_2!3 +50.923074205041104 y_1!6_2!3 +70.1645104546653 y_1!1_2!4 -29.40728096477028 y_1!2_2!4 +17.15391682933847 y_1!3_2!4 +14.139943826421117 y_1!4_2!4 +52.312400243068595 y_1!5_2!4 -52.54645320627396 y_1!6_2!4 -6.055156658452731 y_1!1_2!5 -59.02271606397158 y_1!2_2!5 -32.4161010960742 y_1!3_2!5 +0.11084600861221361 y_1!4_2!5 +99.3931077314158 y_1!5_2!5 +15.281189043628757 y_1!6_2!5 +36.909353880205515 y_1!1_2!6 -15.03830855460302 y_1!2_2!6 +27.06246243815241 y_1!3_2!6 +32.29959372724346 y_1!4_2!6 +1.9174090598806686 y_1!5_2!6 +59.64501145035484 y_1!6_2!6 + lambda_0!4 - mu_0 = 0
 epc_0!5: -41.90522910296295 y_1!1_2!1 -59.94364358690889 y_1!2_2!1 +84.77626950608501 y_1!3_2!1 +46.597302777645666 y_1!4_2!1 +35.86126958679131 y_1!5_2!1 -72.95420741701362 y_1!6_2!1 +24.62060150596848 y_1!1_2!2 +88.05494684699522 y_1!2_2!2 +16.77397469157731 y_1!3_2!2 +27.954630372609174 y_1!4_2!2 +46.942421286444244 y_1!5_2!2 -78.0468164363113 y_1!6_2!2 +99.92020819677805 y_1!1_2!3 -84.69857964474929 y_1!2_2!3 +82.94430203971257 y_1!3_2!3 -87.58681684225576 y_1!4_2!3 -84.66539748283297 y_1!5_2!3 +28.25726142090147 y_1!6_2!3 +68.32357807939559 y_1!1_2!4 +52.90558755733838 y_1!2_2!4 +0.589241059338903 y_1!3_2!4 -29.056902610111692 y_1!4_2!4 +53.95063246177773 y_1!5_2!4 -25.485134908442575 y_1!6_2!4 +98.8804204804548 y_1!1_2!5 -87.89356548053433 y_1!2_2!5 -49.0655865023619 y_1!3_2!5 -75.27632413535252 y_1!4_2!5 -83.1067932501893 y_1!5_2!5 -63.04133513787944 y_1!6_2!5 -26.64361905408306 y_1!1_2!6 +92.49851806967013 y_1!2_2!6 +30.725091975245704 y_1!3_2!6 -48.04565192758603 y_1!4_2!6 +91.95415197086055 y_1!5_2!6 -94.54211546872173 y_1!6_2!6 + lambda_0!5 - mu_0 = 0
 epc_0!6: +29.3685957440471 y_1!1_2!1 +97.25161522887686 y_1!2_2!1 +3.8562559473290747 y_1!3_2!1 +49.478409545417804 y_1!4_2!1 -90.36062514861493 y_1!5_2!1 +22.96960305461522 y_1!6_2!1 +66.4929490348072 y_1!1_2!2 -63.87850753035047 y_1!2_2!2 +37.42150698846214 y_1!3_2!2 -25.127532110478384 y_1!4_2!2 -47.57957357847759 y_1!5_2!2 -87.24194264356998 y_1!6_2!2 -50.7962910174504 y_1!1_2!3 -72.8164808380813 y_1!2_2!3 -89.84766071172372 y_1!3_2!3 -41.54670688054773 y_1!4_2!3 -26.62983754812103 y_1!5_2!3 -90.14559019098655 y_1!6_2!3 -49.38284084197526 y_1!1_2!4 +95.09877932558703 y_1!2_2!4 -3.9774537177630407 y_1!3_2!4 -96.31286763246847 y_1!4_2!4 +36.8632616133369 y_1!5_2!4 +75.2651592944843 y_1!6_2!4 +1.3259709216260518 y_1!1_2!5 +50.800194355957046 y_1!2_2!5 -41.9464309152155 y_1!3_2!5 +1.414667344641856 y_1!4_2!5 -81.58985516879618 y_1!5_2!5 -75.02970919313086 y_1!6_2!5 +44.7809597413663 y_1!1_2!6 +46.004782223361445 y_1!2_2!6 -43.143095499786696 y_1!3_2!6 +56.3807567901373 y_1!4_2!6 -67.26420966995425 y_1!5_2!6 +92.01422585889057 y_1!6_2!6 + lambda_0!6 - mu_0 = 0
 dc_0: x_0!1 + x_0!2 + x_0!3 + x_0!4 + x_0!5 + x_0!6 = 1
 bc_0!1: lambda_0!1 +299.754416315664 x_0!1 <= 299.754416315664
 bc_0!2: lambda_0!2 +299.754416315664 x_0!2 <= 299.754416315664
 bc_0!3: lambda_0!3 +299.754416315664 x_0!3 <= 299.754416315664
 bc_0!4: lambda_0!4 +299.754416315664 x_0!4 <= 299.754416315664
 bc_0!5: lambda_0!5 +299.754416315664 x_0!5 <= 299.754416315664
 bc_0!6: lambda_0!6 +299.754416315664 x_0!6 <= 299.754416315664
 sum_0!1: y_1!1_2!1 - x_1!1 - x_2!1 >= -1
 idk_0!1!1: y_1!1_2!1 - x_1!1 <= 0
 idk_0!1!2: y_1!1_2!1 - x_2!1 <= 0
 sum_0!2: y_1!2_2!1 - x_1!2 - x_2!1 >= -1
 idk_0!2!1: y_1!2_2!1 - x_1!2 <= 0
 idk_0!2!2: y_1!2_2!1 - x_2!1 <= 0
 sum_0!3: y_1!3_2!1 - x_1!3 - x_2!1 >= -1
 idk_0!3!1: y_1!3_2!1 - x_1!3 <= 0
 idk_0!3!2: y_1!3_2!1 - x_2!1 <= 0
 sum_0!4: y_1!4_2!1 - x_1!4 - x_2!1 >= -1
 idk_0!4!1: y_1!4_2!1 - x_1!4 <= 0
 idk_0!4!2: y_1!4_2!1 - x_2!1 <= 0
 sum_0!5: y_1!5_2!1 - x_1!5 - x_2!1 >= -1
 idk_0!5!1: y_1!5_2!1 - x_1!5 <= 0
 idk_0!5!2: y_1!5_2!1 - x_2!1 <= 0
 sum_0!6: y_1!6_2!1 - x_1!6 - x_2!1 >= -1
 idk_0!6!1: y_1!6_2!1 - x_1!6 <= 0
 idk_0!6!2: y_1!6_2!1 - x_2!1 <= 0
 sum_0!7: y_1!1_2!2 - x_1!1 - x_2!2 >= -1
 idk_0!7!1: y_1!1_2!2 - x_1!1 <= 0
 idk_0!7!2: y_1!1_2!2 - x_2!2 <= 0
 sum_0!8: y_1!2_2!2 - x_1!2 - x_2!2 >= -1
 idk_0!8!1: y_1!2_2!2 - x_1!2 <= 0
 idk_0!8!2: y_1!2_2!2 - x_2!2 <= 0
 sum_0!9: y_1!3_2!2 - x_1!3 - x_2!2 >= -1
 idk_0!9!1: y_1!3_2!2 - x_1!3 <= 0
 idk_0!9!2: y_1!3_2!2 - x_2!2 <= 0
 sum_0!10: y_1!4_2!2 - x_1!4 - x_2!2 >= -1
 idk_0!10!1: y_1!4_2!2 - x_1!4 <= 0
 idk_0!10!2: y_1!4_2!2 - x_2!2 <= 0
 sum_0!11: y_1!5_2!2 - x_1!5 - x_2!2 >= -1
 idk_0!11!1: y_1!5_2!2 - x_1!5 <= 0
 idk_0!11!2: y_1!5_2!2 - x_2!2 <= 0
 sum_0!12: y_1!6_2!2 - x_1!6 - x_2!2 >= -1
 idk_0!12!1: y_1!6_2!2 - x_1!6 <= 0
 idk_0!12!2: y_1!6_2!2 - x_2!2 <= 0
 sum_0!13: y_1!1_2!3 - x_1!1 - x_2!3 >= -1
 idk_0!13!1: y_1!1_2!3 - x_1!1 <= 0
 idk_0!13!2: y_1!1_2!3 - x_2!3 <= 0
 sum_0!14: y_1!2_2!3 - x_1!2 - x_2!3 >= -1
 idk_0!14!1: y_1!2_2!3 - x_1!2 <= 0
 idk_0!14!2: y_1!2_2!3 - x_2!3 <= 0
 sum_0!15: y_1!3_2!3 - x_1!3 - x_2!3 >= -1
 idk_0!15!1: y_1!3_2!3 - x_1!3 <= 0
 idk_0!15!2: y_1!3_2!3 - x_2!3 <= 0
 sum_0!16: y_1!4_2!3 - x_1!4 - x_2!3 >= -1
 idk_0!16!1: y_1!4_2!3 - x_1!4 <= 0
 idk_0!16!2: y_1!4_2!3 - x_2!3 <= 0
 sum_0!17: y_1!5_2!3 - x_1!5 - x_2!3 >= -1
 idk_0!17!1: y_1!5_2!3 - x_1!5 <= 0
 idk_0!17!2: y_1!5_2!3 - x_2!3 <= 0
 sum_0!18: y_1!6_2!3 - x_1!6 - x_2!3 >= -1
 idk_0!18!1: y_1!6_2!3 - x_1!6 <= 0
 idk_0!18!2: y_1!6_2!3 - x_2!3 <= 0
 sum_0!19: y_1!1_2!4 - x_1!1 - x_2!4 >= -1
 idk_0!19!1: y_1!1_2!4 - x_1!1 <= 0
 idk_0!19!2: y_1!1_2!4 - x_2!4 <= 0
 sum_0!20: y_1!2_2!4 - x_1!2 - x_2!4 >= -1
 idk_0!20!1: y_1!2_2!4 - x_1!2 <= 0
 idk_0!20!2: y_1!2_2!4 - x_2!4 <= 0
 sum_0!21: y_1!3_2!4 - x_1!3 - x_2!4 >= -1
 idk_0!21!1: y_1!3_2!4 - x_1!3 <= 0
 idk_0!21!2: y_1!3_2!4 - x_2!4 <= 0
 sum_0!22: y_1!4_2!4 - x_1!4 - x_2!4 >= -1
 idk_0!22!1: y_1!4_2!4 - x_1!4 <= 0
 idk_0!22!2: y_1!4_2!4 - x_2!4 <= 0
 sum_0!23: y_1!5_2!4 - x_1!5 - x_2!4 >= -1
 idk_0!23!1: y_1!5_2!4 - x_1!5 <= 0
 idk_0!23!2: y_1!5_2!4 - x_2!4 <= 0
 sum_0!24: y_1!6_2!4 - x_1!6 - x_2!4 >= -1
 idk_0!24!1: y_1!6_2!4 - x_1!6 <= 0
 idk_0!24!2: y_1!6_2!4 - x_2!4 <= 0
 sum_0!25: y_1!1_2!5 - x_1!1 - x_2!5 >= -1
 idk_0!25!1: y_1!1_2!5 - x_1!1 <= 0
 idk_0!25!2: y_1!1_2!5 - x_2!5 <= 0
 sum_0!26: y_1!2_2!5 - x_1!2 - x_2!5 >= -1
 idk_0!26!1: y_1!2_2!5 - x_1!2 <= 0
 idk_0!26!2: y_1!2_2!5 - x_2!5 <= 0
 sum_0!27: y_1!3_2!5 - x_1!3 - x_2!5 >= -1
 idk_0!27!1: y_1!3_2!5 - x_1!3 <= 0
 idk_0!27!2: y_1!3_2!5 - x_2!5 <= 0
 sum_0!28: y_1!4_2!5 - x_1!4 - x_2!5 >= -1
 idk_0!28!1: y_1!4_2!5 - x_1!4 <= 0
 idk_0!28!2: y_1!4_2!5 - x_2!5 <= 0
 sum_0!29: y_1!5_2!5 - x_1!5 - x_2!5 >= -1
 idk_0!29!1: y_1!5_2!5 - x_1!5 <= 0
 idk_0!29!2: y_1!5_2!5 - x_2!5 <= 0
 sum_0!30: y_1!6_2!5 - x_1!6 - x_2!5 >= -1
 idk_0!30!1: y_1!6_2!5 - x_1!6 <= 0
 idk_0!30!2: y_1!6_2!5 - x_2!5 <= 0
 sum_0!31: y_1!1_2!6 - x_1!1 - x_2!6 >= -1
 idk_0!31!1: y_1!1_2!6 - x_1!1 <= 0
 idk_0!31!2: y_1!1_2!6 - x_2!6 <= 0
 sum_0!32: y_1!2_2!6 - x_1!2 - x_2!6 >= -1
 idk_0!32!1: y_1!2_2!6 - x_1!2 <= 0
 idk_0!32!2: y_1!2_2!6 - x_2!6 <= 0
 sum_0!33: y_1!3_2!6 - x_1!3 - x_2!6 >= -1
 idk_0!33!1: y_1!3_2!6 - x_1!3 <= 0
 idk_0!33!2: y_1!3_2!6 - x_2!6 <= 0
 sum_0!34: y_1!4_2!6 - x_1!4 - x_2!6 >= -1
 idk_0!34!1: y_1!4_2!6 - x_1!4 <= 0
 idk_0!34!2: y_1!4_2!6 - x_2!6 <= 0
 sum_0!35: y_1!5_2!6 - x_1!5 - x_2!6 >= -1
 idk_0!35!1: y_1!5_2!6 - x_1!5 <= 0
 idk_0!35!2: y_1!5_2!6 - x_2!6 <= 0
 sum_0!36: y_1!6_2!6 - x_1!6 - x_2!6 >= -1
 idk_0!36!1: y_1!6_2!6 - x_1!6 <= 0
 idk_0!36!2: y_1!6_2!6 - x_2!6 <= 0
 epc_1!1: -51.71858553834399 y_0!1_2!1 -70.17743565985168 y_0!2_2!1 -63.33108366303581 y_0!3_2!1 +67.53600363589806 y_0!4_2!1 -86.81717183112133 y_0!5_2!1 +61.64924768886854 y_0!6_2!1 -23.55246078899978 y_0!1_2!2 -45.64269422247473 y_0!2_2!2 +74.27527001823273 y_0!3_2!2 -96.08394213563109 y_0!4_2!2 +49.74306333195577 y_0!5_2!2 -61.6047591431192 y_0!6_2!2 +25.86625406321923 y_0!1_2!3 -5.208444977433402 y_0!2_2!3 +36.492584862207735 y_0!3_2!3 -58.08818801853442 y_0!4_2!3 +63.84442949509639 y_0!5_2!3 +28.02124211495604 y_0!6_2!3 -13.91221591946497 y_0!1_2!4 -53.73773672100175 y_0!2_2!4 +64.25826962718361 y_0!3_2!4 -29.0193034930591 y_0!4_2!4 +77.10607433735413 y_0!5_2!4 +34.75291363701163 y_0!6_2!4 +62.17605925302894 y_0!1_2!5 +41.933940691746045 y_0!2_2!5 -80.7671621910456 y_0!3_2!5 -65.86214707921074 y_0!4_2!5 +96.68814954825174 y_0!5_2!5 +85.44501443150492 y_0!6_2!5 +8.269185149412266 y_0!1_2!6 -88.47959022290866 y_0!2_2!6 +95.03378449422374 y_0!3_2!6 -21.88457631482062 y_0!4_2!6 +37.60212407757518 y_0!5_2!6 +34.43212526216428 y_0!6_2!6 + lambda_1!1 - mu_1 = 0
 epc_1!2: +71.68985786972402 y_0!1_2!1 +77.10549059041199 y_0!2_2!1 +54.57550851669939 y_0!3_2!1 +24.62853132495988 y_0!4_2!1 -75.79389662705272 y_0!5_2!1 +23.650358511194014 y_0!6_2!1 -32.19073489389581 y_0!1_2!2 +13.290011461026197 y_0!2_2!2 -94.32280024929824 y_0!3_2!2 -87.41776464069201 y_0!4_2!2 -90.25081564001214 y_0!5_2!2 -20.503602420414538 y_0!6_2!2 -1.4712431857718258 y_0!1_2!3 -71.7838401571533 y_0!2_2!3 -68.03990605795906 y_0!3_2!3 -50.80614835765596 y_0!4_2!3 +21.274063831643716 y_0!5_2!3 -4.827093007306303 y_0!6_2!3 +63.197414447038 y_0!1_2!4 +49.01309390712191 y_0!2_2!4 -40.0014843347692 y_0!3_2!4 +61.68289375001689 y_0!4_2!4 -74.55684966932276 y_0!5_2!4 +4.504597019901951 y_0!6_2!4 -58.87088256369122 y_0!1_2!5 +56.50736856294051 y_0!2_2!5 -27.890779559228832 y_0!3_2!5 -14.766316416519018 y_0!4_2!5 +9.314499453417113 y_0!5_2!5 +22.532289123251957 y_0!6_2!5 +5.487050650448538 y_0!1_2!6 +28.155856300212434 y_0!2_2!6 -0.05059234919909272 y_0!3_2!6 +23.910093574826092 y_0!4_2!6 +16.23122808831188 y_0!5_2!6 +33.239734621280576 y_0!6_2!6 + lambda_1!2 - mu_1 = 0
 epc_1!3: -79.85351812097143 y_0!1_2!1 +38.905596579575786 y_0!2_2!1 -4.484309892708509 y_0!3_2!1 -88.08176423847766 y_0!4_2!1 -40.41413529930047 y_0!5_2!1 -32.14002727151302 y_0!6_2!1 -60.85791091890387 y_0!1_2!2 +46.33539745321423 y_0!2_2!2 -6.933115329087684 y_0!3_2!2 +47.80683315423502 y_0!4_2!2 -27.493564494531753 y_0!5_2!2 +75.63983305076789 y_0!6_2!2 +75.52268761190638 y_0!1_2!3 +2.157157759626898 y_0!2_2!3 -45.245427188251284 y_0!3_2!3 +55.47296468980812 y_0!4_2!3 +84.40564008600094 y_0!5_2!3 +25.066007956430397 y_0!6_2!3 +33.30292061298002 y_0!1_2!4 -65.37465936531703 y_0!2_2!4 +45.20774587821822 y_0!3_2!4 -2.7223275217707936 y_0!4_2!4 +43.957963505496934 y_0!5_2!4 +9.156449928132531 y_0!6_2!4 -19.13386741961007 y_0!1_2!5 +85.77393738305031 y_0!2_2!5 +20.356948150045213 y_0!3_2!5 +14.194643583270377 y_0!4_2!5 -98.73372645360357 y_0!5_2!5 -81.55743860597923 y_0!6_2!5 +39.208304403500904 y_0!1_2!6 +52.38815610498074 y_0!2_2!6 +4.878122776170386 y_0!3_2!6 +8.983999316016849 y_0!4_2!6 +23.680143437171992 y_0!5_2!6 -81.0014584227096 y_0!6_2!6 + lambda_1!3 - mu_1 = 0
 epc_1!4: -28.234058653875877 y_0!1_2!1 -77.68487481868809 y_0!2_2!1 -68.46703702249151 y_0!3_2!1 -38.14658892245293 y_0!4_2!1 +46.124109905467236 y_0!5_2!1 +31.870468740110823 y_0!6_2!1 +95.71221000219916 y_0!1_2!2 +68.99980486487894 y_0!2_2!2 -12.097949024103684 y_0!3_2!2 -75.50857539127247 y_0!4_2!2 -26.627457225788405 y_0!5_2!2 +25.031747772274798 y_0!6_2!2 -16.65664497079007 y_0!1_2!3 +51.933614372448744 y_0!2_2!3 -80.50946700631098 y_0!3_2!3 -44.69999306566939 y_0!4_2!3 -63.85128011020282 y_0!5_2!3 -53.90297722703543 y_0!6_2!3 +86.29921969032583 y_0!1_2!4 -32.30416463208053 y_0!2_2!4 +51.91741649603219 y_0!3_2!4 +56.66091832279915 y_0!4_2!4 +41.74830056240191 y_0!5_2!4 +54.418850315756316 y_0!6_2!4 -65.67918568115309 y_0!1_2!5 -51.67815036769032 y_0!2_2!5 +38.23960100582204 y_0!3_2!5 -45.9920250260039 y_0!4_2!5 -81.43697756477317 y_0!5_2!5 +66.48563838345677 y_0!6_2!5 -57.256461113467985 y_0!1_2!6 +7.959752924796291 y_0!2_2!6 -86.40673270420541 y_0!3_2!6 -80.32737330311173 y_0!4_2!6 -20.186616098313365 y_0!5_2!6 -29.7701766666121 y_0!6_2!6 + lambda_1!4 - mu_1 = 0
 epc_1!5: +98.70310659778994 y_0!1_2!1 -25.8342622119427 y_0!2_2!1 +9.460209772226591 y_0!3_2!1 -61.17972216764866 y_0!4_2!1 -84.73373583419645 y_0!5_2!1 -91.87856628588271 y_0!6_2!1 +97.61183282254075 y_0!1_2!2 +36.58300935347455 y_0!2_2!2 -58.14347091940733 y_0!3_2!2 +98.04173271835501 y_0!4_2!2 +16.200444870594538 y_0!5_2!2 +59.24446626131606 y_0!6_2!2 -61.73388802704729 y_0!1_2!3 -95.24963553057728 y_0!2_2!3 +53.64646933183295 y_0!3_2!3 -28.676740171134128 y_0!4_2!3 +61.54383835689933 y_0!5_2!3 +99.24417159668636 y_0!6_2!3 -65.14449935608009 y_0!1_2!4 +3.4526039422450197 y_0!2_2!4 +30.55721448027853 y_0!3_2!4 +98.00862434112193 y_0!4_2!4 -28.004669172242473 y_0!5_2!4 -44.51353437010916 y_0!6_2!4 -6.259117868572602 y_0!1_2!5 -13.049314182995147 y_0!2_2!5 +92.5365043299762 y_0!3_2!5 -48.94676710599637 y_0!4_2!5 +21.664496949136947 y_0!5_2!5 +55.14917140399939 y_0!6_2!5 -34.761923753227904 y_0!1_2!6 -12.090091660451364 y_0!2_2!6 -53.63964266858103 y_0!3_2!6 +78.03537078527597 y_0!4_2!6 +61.136815350531805 y_0!5_2!6 -32.24306040246205 y_0!6_2!6 + lambda_1!5 - mu_1 = 0
 epc_1!6: -15.976840907009077 y_0!1_2!1 +56.93988430225019 y_0!2_2!1 +31.056302914451948 y_0!3_2!1 -89.14518643780525 y_0!4_2!1 -20.525672771908148 y_0!5_2!1 +11.578255400415841 y_0!6_2!1 +42.52857987032553 y_0!1_2!2 -83.79580070905344 y_0!2_2!2 -12.71305992686409 y_0!3_2!2 +96.84255145122077 y_0!4_2!2 -42.146627617835186 y_0!5_2!2 -5.485563760947329 y_0!6_2!2 -58.32187957678481 y_0!1_2!3 -79.97495010861635 y_0!2_2!3 +81.25944512369392 y_0!3_2!3 -30.180201221716047 y_0!4_2!3 +86.31965234990696 y_0!5_2!3 -61.98820133495657 y_0!6_2!3 +19.137294007492983 y_0!1_2!4 +4.915873695442016 y_0!2_2!4 +72.85032055722428 y_0!3_2!4 +35.633301902543366 y_0!4_2!4 -33.864435938021686 y_0!5_2!4 -31.5521463001172 y_0!6_2!4 -63.63660846462973 y_0!1_2!5 +15.553578744120998 y_0!2_2!5 +17.631819045885095 y_0!3_2!5 +29.910529149264562 y_0!4_2!5 +5.823143571604604 y_0!5_2!5 +58.34181863018708 y_0!6_2!5 +27.918981264894853 y_0!1_2!6 +5.177206105828105 y_0!2_2!6 +19.928526539773955 y_0!3_2!6 -69.26668507383113 y_0!4_2!6 +18.959552434062175 y_0!5_2!6 -88.79219681114438 y_0!6_2!6 + lambda_1!6 - mu_1 = 0
 dc_1: x_1!1 + x_1!2 + x_1!3 + x_1!4 + x_1!5 + x_1!6 = 1
 bc_1!1: lambda_1!1 +299.754416315664 x_1!1 <= 299.754416315664
 bc_1!2: lambda_1!2 +299.754416315664 x_1!2 <= 299.754416315664
 bc_1!3: lambda_1!3 +299.754416315664 x_1!3 <= 299.754416315664
 bc_1!4: lambda_1!4 +299.754416315664 x_1!4 <= 299.754416315664
 bc_1!5: lambda_1!5 +299.754416315664 x_1!5 <= 299.754416315664
 bc_1!6: lambda_1!6 +299.754416315664 x_1!6 <= 299.754416315664
 sum_1!1: y_0!1_2!1 - x_0!1 - x_2!1 >= -1
 idk_1!1!0: y_0!1_2!1 - x_0!1 <= 0
 idk_1!1!2: y_0!1_2!1 - x_2!1 <= 0
 sum_1!2: y_0!2_2!1 - x_0!2 - x_2!1 >= -1
 idk_1!2!0: y_0!2_2!1 - x_0!2 <= 0
 idk_1!2!2: y_0!2_2!1 - x_2!1 <= 0
 sum_1!3: y_0!3_2!1 - x_0!3 - x_2!1 >= -1
 idk_1!3!0: y_0!3_2!1 - x_0!3 <= 0
 idk_1!3!2: y_0!3_2!1 - x_2!1 <= 0
 sum_1!4: y_0!4_2!1 - x_0!4 - x_2!1 >= -1
 idk_1!4!0: y_0!4_2!1 - x_0!4 <= 0
 idk_1!4!2: y_0!4_2!1 - x_2!1 <= 0
 sum_1!5: y_0!5_2!1 - x_0!5 - x_2!1 >= -1
 idk_1!5!0: y_0!5_2!1 - x_0!5 <= 0
 idk_1!5!2: y_0!5_2!1 - x_2!1 <= 0
 sum_1!6: y_0!6_2!1 - x_0!6 - x_2!1 >= -1
 idk_1!6!0: y_0!6_2!1 - x_0!6 <= 0
 idk_1!6!2: y_0!6_2!1 - x_2!1 <= 0
 sum_1!7: y_0!1_2!2 - x_0!1 - x_2!2 >= -1
 idk_1!7!0: y_0!1_2!2 - x_0!1 <= 0
 idk_1!7!2: y_0!1_2!2 - x_2!2 <= 0
 sum_1!8: y_0!2_2!2 - x_0!2 - x_2!2 >= -1
 idk_1!8!0: y_0!2_2!2 - x_0!2 <= 0
 idk_1!8!2: y_0!2_2!2 - x_2!2 <= 0
 sum_1!9: y_0!3_2!2 - x_0!3 - x_2!2 >= -1
 idk_1!9!0: y_0!3_2!2 - x_0!3 <= 0
 idk_1!9!2: y_0!3_2!2 - x_2!2 <= 0
 sum_1!10: y_0!4_2!2 - x_0!4 - x_2!2 >= -1
 idk_1!10!0: y_0!4_2!2 - x_0!4 <= 0
 idk_1!10!2: y_0!4_2!2 - x_2!2 <= 0
 sum_1!11: y_0!5_2!2 - x_0!5 - x_2!2 >= -1
 idk_1!11!0: y_0!5_2!2 - x_0!5 <= 0
 idk_1!11!2: y_0!5_2!2 - x_2!2 <= 0
 sum_1!12: y_0!6_2!2 - x_0!6 - x_2!2 >= -1
 idk_1!12!0: y_0!6_2!2 - x_0!6 <= 0
 idk_1!12!2: y_0!6_2!2 - x_2!2 <= 0
 sum_1!13: y_0!1_2!3 - x_0!1 - x_2!3 >= -1
 idk_1!13!0: y_0!1_2!3 - x_0!1 <= 0
 idk_1!13!2: y_0!1_2!3 - x_2!3 <= 0
 sum_1!14: y_0!2_2!3 - x_0!2 - x_2!3 >= -1
 idk_1!14!0: y_0!2_2!3 - x_0!2 <= 0
 idk_1!14!2: y_0!2_2!3 - x_2!3 <= 0
 sum_1!15: y_0!3_2!3 - x_0!3 - x_2!3 >= -1
 idk_1!15!0: y_0!3_2!3 - x_0!3 <= 0
 idk_1!15!2: y_0!3_2!3 - x_2!3 <= 0
 sum_1!16: y_0!4_2!3 - x_0!4 - x_2!3 >= -1
 idk_1!16!0: y_0!4_2!3 - x_0!4 <= 0
 idk_1!16!2: y_0!4_2!3 - x_2!3 <= 0
 sum_1!17: y_0!5_2!3 - x_0!5 - x_2!3 >= -1
 idk_1!17!0: y_0!5_2!3 - x_0!5 <= 0
 idk_1!17!2: y_0!5_2!3 - x_2!3 <= 0
 sum_1!18: y_0!6_2!3 - x_0!6 - x_2!3 >= -1
 idk_1!18!0: y_0!6_2!3 - x_0!6 <= 0
 idk_1!18!2: y_0!6_2!3 - x_2!3 <= 0
 sum_1!19: y_0!1_2!4 - x_0!1 - x_2!4 >= -1
 idk_1!19!0: y_0!1_2!4 - x_0!1 <= 0
 idk_1!19!2: y_0!1_2!4 - x_2!4 <= 0
 sum_1!20: y_0!2_2!4 - x_0!2 - x_2!4 >= -1
 idk_1!20!0: y_0!2_2!4 - x_0!2 <= 0
 idk_1!20!2: y_0!2_2!4 - x_2!4 <= 0
 sum_1!21: y_0!3_2!4 - x_0!3 - x_2!4 >= -1
 idk_1!21!0: y_0!3_2!4 - x_0!3 <= 0
 idk_1!21!2: y_0!3_2!4 - x_2!4 <= 0
 sum_1!22: y_0!4_2!4 - x_0!4 - x_2!4 >= -1
 idk_1!22!0: y_0!4_2!4 - x_0!4 <= 0
 idk_1!22!2: y_0!4_2!4 - x_2!4 <= 0
 sum_1!23: y_0!5_2!4 - x_0!5 - x_2!4 >= -1
 idk_1!23!0: y_0!5_2!4 - x_0!5 <= 0
 idk_1!23!2: y_0!5_2!4 - x_2!4 <= 0
 sum_1!24: y_0!6_2!4 - x_0!6 - x_2!4 >= -1
 idk_1!24!0: y_0!6_2!4 - x_0!6 <= 0
 idk_1!24!2: y_0!6_2!4 - x_2!4 <= 0
 sum_1!25: y_0!1_2!5 - x_0!1 - x_2!5 >= -1
 idk_1!25!0: y_0!1_2!5 - x_0!1 <= 0
 idk_1!25!2: y_0!1_2!5 - x_2!5 <= 0
 sum_1!26: y_0!2_2!5 - x_0!2 - x_2!5 >= -1
 idk_1!26!0: y_0!2_2!5 - x_0!2 <= 0
 idk_1!26!2: y_0!2_2!5 - x_2!5 <= 0
 sum_1!27: y_0!3_2!5 - x_0!3 - x_2!5 >= -1
 idk_1!27!0: y_0!3_2!5 - x_0!3 <= 0
 idk_1!27!2: y_0!3_2!5 - x_2!5 <= 0
 sum_1!28: y_0!4_2!5 - x_0!4 - x_2!5 >= -1
 idk_1!28!0: y_0!4_2!5 - x_0!4 <= 0
 idk_1!28!2: y_0!4_2!5 - x_2!5 <= 0
 sum_1!29: y_0!5_2!5 - x_0!5 - x_2!5 >= -1
 idk_1!29!0: y_0!5_2!5 - x_0!5 <= 0
 idk_1!29!2: y_0!5_2!5 - x_2!5 <= 0
 sum_1!30: y_0!6_2!5 - x_0!6 - x_2!5 >= -1
 idk_1!30!0: y_0!6_2!5 - x_0!6 <= 0
 idk_1!30!2: y_0!6_2!5 - x_2!5 <= 0
 sum_1!31: y_0!1_2!6 - x_0!1 - x_2!6 >= -1
 idk_1!31!0: y_0!1_2!6 - x_0!1 <= 0
 idk_1!31!2: y_0!1_2!6 - x_2!6 <= 0
 sum_1!32: y_0!2_2!6 - x_0!2 - x_2!6 >= -1
 idk_1!32!0: y_0!2_2!6 - x_0!2 <= 0
 idk_1!32!2: y_0!2_2!6 - x_2!6 <= 0
 sum_1!33: y_0!3_2!6 - x_0!3 - x_2!6 >= -1
 idk_1!33!0: y_0!3_2!6 - x_0!3 <= 0
 idk_1!33!2: y_0!3_2!6 - x_2!6 <= 0
 sum_1!34: y_0!4_2!6 - x_0!4 - x_2!6 >= -1
 idk_1!34!0: y_0!4_2!6 - x_0!4 <= 0
 idk_1!34!2: y_0!4_2!6 - x_2!6 <= 0
 sum_1!35: y_0!5_2!6 - x_0!5 - x_2!6 >= -1
 idk_1!35!0: y_0!5_2!6 - x_0!5 <= 0
 idk_1!35!2: y_0!5_2!6 - x_2!6 <= 0
 sum_1!36: y_0!6_2!6 - x_0!6 - x_2!6 >= -1
 idk_1!36!0: y_0!6_2!6 - x_0!6 <= 0
 idk_1!36!2: y_0!6_2!6 - x_2!6 <= 0
 epc_2!1: +67.60704795377285 y_0!1_1!1 +26.993258537190684 y_0!2_1!1 +2.756214989756316 y_0!3_1!1 +44.07949363841172 y_0!4_1!1 +46.264261021203765 y_0!5_1!1 -22.025982017765486 y_0!6_1!1 -79.61890582200677 y_0!1_1!2 -29.37643086219323 y_0!2_1!2 -80.26465935838212 y_0!3_1!2 -69.31069770494018 y_0!4_1!2 -91.94579475038671 y_0!5_1!2 +82.8381266739938 y_0!6_1!2 -27.59334041409562 y_0!1_1!3 +7.906784017330253 y_0!2_1!3 -0.9173366820205899 y_0!3_1!3 +39.89649250651448 y_0!4_1!3 -93.81883248477887 y_0!5_1!3 +96.84677719616616 y_0!6_1!3 +35.656432358651756 y_0!1_1!4 -68.28619642261653 y_0!2_1!4 +64.34756099430894 y_0!3_1!4 +49.761420442060825 y_0!4_1!4 -33.85096039483213 y_0!5_1!4 -36.64268111819333 y_0!6_1!4 -42.8977820830599 y_0!1_1!5 +65.52296328364383 y_0!2_1!5 +27.307655551132214 y_0!3_1!5 +81.55894879813667 y_0!4_1!5 +38.05853424780386 y_0!5_1!5 -5.621857314769187 y_0!6_1!5 -96.26626214591877 y_0!1_1!6 +84.022204953585 y_0!2_1!6 +34.39874777311644 y_0!3_1!6 +34.783421028274404 y_0!4_1!6 +69.75065134736269 y_0!5_1!6 -36.65157055916539 y_0!6_1!6 + lambda_2!1 - mu_2 = 0
 epc_2!2: +55.39355970990931 y_0!1_1!1 +36.743728371669164 y_0!2_1!1 -99.80002487946953 y_0!3_1!1 -32.709836691930064 y_0!4_1!1 -5.164792682459975 y_0!5_1!1 -9.664892257432186 y_0!6_1!1 -13.096373010710977 y_0!1_1!2 -94.3278222521187 y_0!2_1!2 +2.49996497403626 y_0!3_1!2 +61.099496284036206 y_0!4_1!2 +16.474100133568314 y_0!5_1!2 +1.7035358694166973 y_0!6_1!2 +28.07637540581672 y_0!1_1!3 -64.2423199898524 y_0!2_1!3 -47.14941751900803 y_0!3_1!3 +71.53694424259595 y_0!4_1!3 +38.06573556423706 y_0!5_1!3 +62.1943250999592 y_0!6_1!3 -75.61613611804046 y_0!1_1!4 +20.814382936912608 y_0!2_1!4 +71.9818257529939 y_0!3_1!4 +6.92667270041855 y_0!4_1!4 -59.51156144292709 y_0!5_1!4 -29.42918806086041 y_0!6_1!4 +38.747030644182274 y_0!1_1!5 +11.276455001068399 y_0!2_1!5 -43.174676281295675 y_0!3_1!5 -32.74936235610669 y_0!4_1!5 +57.50243196256764 y_0!5_1!5 -95.77769153156979 y_0!6_1!5 +70.67463241790858 y_0!1_1!6 -7.275646889617633 y_0!2_1!6 +19.11964524768659 y_0!3_1!6 +25.417759371149785 y_0!4_1!6 -40.3979182949914 y_0!5_1!6 +70.07566481308643 y_0!6_1!6 + lambda_2!2 - mu_2 = 0
 epc_2!3: +85.52267260423247 y_0!1_1!1 -73.88226589184157 y_0!2_1!1 +76.71897918324649 y_0!3_1!1 +59.56209329292187 y_0!4_1!1 +53.49809572405556 y_0!5_1!1 -51.23566452176873 y_0!6_1!1 -15.219328091021083 y_0!1_1!2 +56.535063603707215 y_0!2_1!2 +87.99250132302652 y_0!3_1!2 -62.25962343564186 y_0!4_1!2 -50.936518468387625 y_0!5_1!2 -60.76195071858235 y_0!6_1!2 +76.96617570982079 y_0!1_1!3 -95.69290013229757 y_0!2_1!3 -84.59421305037694 y_0!3_1!3 -30.71559492092102 y_0!4_1!3 -24.307508916831594 y_0!5_1!3 +58.0001926194675 y_0!6_1!3 +74.99392272990434 y_0!1_1!4 +21.24911456992851 y_0!2_1!4 -7.037324288587143 y_0!3_1!4 +24.766134543271875 y_0!4_1!4 -38.58087875146863 y_0!5_1!4 +10.191680015110066 y_0!6_1!4 -75.02394819809028 y_0!1_1!5 +98.87858999733513 y_0!2_1!5 +38.22690018867078 y_0!3_1!5 -2.9399782604843807 y_0!4_1!5 -35.23398920767305 y_0!5_1!5 +21.182581421571783 y_0!6_1!5 +16.625591315277006 y_0!1_1!6 +81.80822109408933 y_0!2_1!6 -94.16755313202323 y_0!3_1!6 +40.47170598339994 y_0!4_1!6 +93.21615709918825 y_0!5_1!6 -57.306364121712086 y_0!6_1!6 + lambda_2!3 - mu_2 = 0
 epc_2!4: +18.221558227807307 y_0!1_1!1 +97.811787923846 y_0!2_1!1 -83.44936546701172 y_0!3_1!1 -52.398192251092944 y_0!4_1!1 +3.6143496853963626 y_0!5_1!1 +75.38185855599795 y_0!6_1!1 -20.978162004601188 y_0!1_1!2 -50.61966613487332 y_0!2_1!2 -66.94462041485187 y_0!3_1!2 -28.08853010190728 y_0!4_1!2 +87.03241978582142 y_0!5_1!2 -17.954256865862888 y_0!6_1!2 -63.22630595051375 y_0!1_1!3 +6.05087848016754 y_0!2_1!3 -12.41347867352627 y_0!3_1!3 +98.36020423175697 y_0!4_1!3 +50.118148464146174 y_0!5_1!3 +7.0186647705558585 y_0!6_1!3 -76.60735691741996 y_0!1_1!4 -68.34236019870632 y_0!2_1!4 +22.94962059056536 y_0!3_1!4 +28.629085204563438 y_0!4_1!4 +51.26173683944995 y_0!5_1!4 +25.931835845447026 y_0!6_1!4 +71.90301349009957 y_0!1_1!5 -81.69082295505706 y_0!2_1!5 +90.0296744629849 y_0!3_1!5 -41.918357540062786 y_0!4_1!5 +95.75215537299115 y_0!5_1!5 -13.026326872620714 y_0!6_1!5 +64.4287150594619 y_0!1_1!6 -25.158535600325393 y_0!2_1!6 -16.318917806679295 y_0!3_1!6 -41.366679659297965 y_0!4_1!6 -19.722155920219137 y_0!5_1!6 +84.30788847693623 y_0!6_1!6 + lambda_2!4 - mu_2 = 0
 epc_2!5: -75.4145100596953 y_0!1_1!1 +30.370233818986293 y_0!2_1!1 -95.94287713938544 y_0!3_1!1 +78.10613915679673 y_0!4_1!1 +72.59840586928624 y_0!5_1!1 -56.178352342077154 y_0!6_1!1 +26.376590529817776 y_0!1_1!2 +15.122897242656634 y_0!2_1!2 -60.14544299138063 y_0!3_1!2 +58.571149474749376 y_0!4_1!2 +64.04553390513647 y_0!5_1!2 +71.36478472830635 y_0!6_1!2 +72.07807803770191 y_0!1_1!3 -74.14551550899253 y_0!2_1!3 -0.6068077279336705 y_0!3_1!3 -47.11531243373077 y_0!4_1!3 -84.10136748176527 y_0!5_1!3 -12.255337838117612 y_0!6_1!3 +68.18741029560044 y_0!1_1!4 +79.85081586636372 y_0!2_1!4 -91.12871363852987 y_0!3_1!4 -27.51103607074394 y_0!4_1!4 +88.94290802371785 y_0!5_1!4 +79.71633658068836 y_0!6_1!4 -86.00424489684073 y_0!1_1!5 -79.07166225747332 y_0!2_1!5 +76.6062980242512 y_0!3_1!5 -23.91992276582559 y_0!4_1!5 -19.89895163698847 y_0!5_1!5 -38.0626767677831 y_0!6_1!5 +2.5501799171042876 y_0!1_1!6 +27.211751007126608 y_0!2_1!6 +37.78170411933607 y_0!3_1!6 -43.41935291947201 y_0!4_1!6 -49.49599190612124 y_0!5_1!6 +54.347880867842235 y_0!6_1!6 + lambda_2!5 - mu_2 = 0
 epc_2!6: -62.357655860941975 y_0!1_1!1 -48.80975702566717 y_0!2_1!1 -25.50525830013612 y_0!3_1!1 -95.2525895466218 y_0!4_1!1 +3.4272572557981107 y_0!5_1!1 +18.82446835071488 y_0!6_1!1 +90.0655678506638 y_0!1_1!2 +18.1288820048309 y_0!2_1!2 +7.182452407291052 y_0!3_1!2 -73.42107284802816 y_0!4_1!2 +23.986325994224572 y_0!5_1!2 -92.50621941987454 y_0!6_1!2 -23.082487917085956 y_0!1_1!3 -57.02377737265958 y_0!2_1!3 +10.364614565653966 y_0!3_1!3 -73.52649808333047 y_0!4_1!3 -80.69478648324504 y_0!5_1!3 -4.830263360186791 y_0!6_1!3 +52.511724980979324 y_0!1_1!4 -24.77977117492793 y_0!2_1!4 -19.222982106074312 y_0!3_1!4 +99.95439143619444 y_0!4_1!4 +70.11308286052233 y_0!5_1!4 -4.505267701648762 y_0!6_1!4 -20.057077062592626 y_0!1_1!5 -74.41493902136841 y_0!2_1!5 +20.19797451994765 y_0!3_1!5 +22.98710922675764 y_0!4_1!5 +22.584426198015933 y_0!5_1!5 +93.16122232436334 y_0!6_1!5 +18.098817781131714 y_0!1_1!6 +1.0389747177636224 y_0!2_1!6 +57.53971744153512 y_0!3_1!6 -3.1557784900594754 y_0!4_1!6 +91.03539968121999 y_0!5_1!6 -85.18117033365134 y_0!6_1!6 + lambda_2!6 - mu_2 = 0
 dc_2: x_2!1 + x_2!2 + x_2!3 + x_2!4 + x_2!5 + x_2!6 = 1
 bc_2!1: lambda_2!1 +299.754416315664 x_2!1 <= 299.754416315664
 bc_2!2: lambda_2!2 +299.754416315664 x_2!2 <= 299.754416315664
 bc_2!3: lambda_2!3 +299.754416315664 x_2!3 <= 299.754416315664
 bc_2!4: lambda_2!4 +299.754416315664 x_2!4 <= 299.754416315664
 bc_2!5: lambda_2!5 +299.754416315664 x_2!5 <= 299.754416315664
 bc_2!6: lambda_2!6 +299.754416315664 x_2!6 <= 299.754416315664
 sum_2!1: y_0!1_1!1 - x_0!1 - x_1!1 >= -1
 idk_2!1!0: y_0!1_1!1 - x_0!1 <= 0
 idk_2!1!1: y_0!1_1!1 - x_1!1 <= 0
 sum_2!2: y_0!2_1!1 - x_0!2 - x_1!1 >= -1
 idk_2!2!0: y_0!2_1!1 - x_0!2 <= 0
 idk_2!2!1: y_0!2_1!1 - x_1!1 <= 0
 sum_2!3: y_0!3_1!1 - x_0!3 - x_1!1 >= -1
 idk_2!3!0: y_0!3_1!1 - x_0!3 <= 0
 idk_2!3!1: y_0!3_1!1 - x_1!1 <= 0
 sum_2!4: y_0!4_1!1 - x_0!4 - x_1!1 >= -1
 idk_2!4!0: y_0!4_1!1 - x_0!4 <= 0
 idk_2!4!1: y_0!4_1!1 - x_1!1 <= 0
 sum_2!5: y_0!5_1!1 - x_0!5 - x_1!1 >= -1
 idk_2!5!0: y_0!5_1!1 - x_0!5 <= 0
 idk_2!5!1: y_0!5_1!1 - x_1!1 <= 0
 sum_2!6: y_0!6_1!1 - x_0!6 - x_1!1 >= -1
 idk_2!6!0: y_0!6_1!1 - x_0!6 <= 0
 idk_2!6!1: y_0!6_1!1 - x_1!1 <= 0
 sum_2!7: y_0!1_1!2 - x_0!1 - x_1!2 >= -1
 idk_2!7!0: y_0!1_1!2 - x_0!1 <= 0
 idk_2!7!1: y_0!1_1!2 - x_1!2 <= 0
 sum_2!8: y_0!2_1!2 - x_0!2 - x_1!2 >= -1
 idk_2!8!0: y_0!2_1!2 - x_0!2 <= 0
 idk_2!8!1: y_0!2_1!2 - x_1!2 <= 0
 sum_2!9: y_0!3_1!2 - x_0!3 - x_1!2 >= -1
 idk_2!9!0: y_0!3_1!2 - x_0!3 <= 0
 idk_2!9!1: y_0!3_1!2 - x_1!2 <= 0
 sum_2!10: y_0!4_1!2 - x_0!4 - x_1!2 >= -1
 idk_2!10!0: y_0!4_1!2 - x_0!4 <= 0
 idk_2!10!1: y_0!4_1!2 - x_1!2 <= 0
 sum_2!11: y_0!5_1!2 - x_0!5 - x_1!2 >= -1
 idk_2!11!0: y_0!5_1!2 - x_0!5 <= 0
 idk_2!11!1: y_0!5_1!2 - x_1!2 <= 0
 sum_2!12: y_0!6_1!2 - x_0!6 - x_1!2 >= -1
 idk_2!12!0: y_0!6_1!2 - x_0!6 <= 0
 idk_2!12!1: y_0!6_1!2 - x_1!2 <= 0
 sum_2!13: y_0!1_1!3 - x_0!1 - x_1!3 >= -1
 idk_2!13!0: y_0!1_1!3 - x_0!1 <= 0
 idk_2!13!1: y_0!1_1!3 - x_1!3 <= 0
 sum_2!14: y_0!2_1!3 - x_0!2 - x_1!3 >= -1
 idk_2!14!0: y_0!2_1!3 - x_0!2 <= 0
 idk_2!14!1: y_0!2_1!3 - x_1!3 <= 0
 sum_2!15: y_0!3_1!3 - x_0!3 - x_1!3 >= -1
 idk_2!15!0: y_0!3_1!3 - x_0!3 <= 0
 idk_2!15!1: y_0!3_1!3 - x_1!3 <= 0
 sum_2!16: y_0!4_1!3 - x_0!4 - x_1!3 >= -1
 idk_2!16!0: y_0!4_1!3 - x_0!4 <= 0
 idk_2!16!1: y_0!4_1!3 - x_1!3 <= 0
 sum_2!17: y_0!5_1!3 - x_0!5 - x_1!3 >= -1
 idk_2!17!0: y_0!5_1!3 - x_0!5 <= 0
 idk_2!17!1: y_0!5_1!3 - x_1!3 <= 0
 sum_2!18: y_0!6_1!3 - x_0!6 - x_1!3 >= -1
 idk_2!18!0: y_0!6_1!3 - x_0!6 <= 0
 idk_2!18!1: y_0!6_1!3 - x_1!3 <= 0
 sum_2!19: y_0!1_1!4 - x_0!1 - x_1!4 >= -1
 idk_2!19!0: y_0!1_1!4 - x_0!1 <= 0
 idk_2!19!1: y_0!1_1!4 - x_1!4 <= 0
 sum_2!20: y_0!2_1!4 - x_0!2 - x_1!4 >= -1
 idk_2!20!0: y_0!2_1!4 - x_0!2 <= 0
 idk_2!20!1: y_0!2_1!4 - x_1!4 <= 0
 sum_2!21: y_0!3_1!4 - x_0!3 - x_1!4 >= -1
 idk_2!21!0: y_0!3_1!4 - x_0!3 <= 0
 idk_2!21!1: y_0!3_1!4 - x_1!4 <= 0
 sum_2!22: y_0!4_1!4 - x_0!4 - x_1!4 >= -1
 idk_2!22!0: y_0!4_1!4 - x_0!4 <= 0
 idk_2!22!1: y_0!4_1!4 - x_1!4 <= 0
 sum_2!23: y_0!5_1!4 - x_0!5 - x_1!4 >= -1
 idk_2!23!0: y_0!5_1!4 - x_0!5 <= 0
 idk_2!23!1: y_0!5_1!4 - x_1!4 <= 0
 sum_2!24: y_0!6_1!4 - x_0!6 - x_1!4 >= -1
 idk_2!24!0: y_0!6_1!4 - x_0!6 <= 0
 idk_2!24!1: y_0!6_1!4 - x_1!4 <= 0
 sum_2!25: y_0!1_1!5 - x_0!1 - x_1!5 >= -1
 idk_2!25!0: y_0!1_1!5 - x_0!1 <= 0
 idk_2!25!1: y_0!1_1!5 - x_1!5 <= 0
 sum_2!26: y_0!2_1!5 - x_0!2 - x_1!5 >= -1
 idk_2!26!0: y_0!2_1!5 - x_0!2 <= 0
 idk_2!26!1: y_0!2_1!5 - x_1!5 <= 0
 sum_2!27: y_0!3_1!5 - x_0!3 - x_1!5 >= -1
 idk_2!27!0: y_0!3_1!5 - x_0!3 <= 0
 idk_2!27!1: y_0!3_1!5 - x_1!5 <= 0
 sum_2!28: y_0!4_1!5 - x_0!4 - x_1!5 >= -1
 idk_2!28!0: y_0!4_1!5 - x_0!4 <= 0
 idk_2!28!1: y_0!4_1!5 - x_1!5 <= 0
 sum_2!29: y_0!5_1!5 - x_0!5 - x_1!5 >= -1
 idk_2!29!0: y_0!5_1!5 - x_0!5 <= 0
 idk_2!29!1: y_0!5_1!5 - x_1!5 <= 0
 sum_2!30: y_0!6_1!5 - x_0!6 - x_1!5 >= -1
 idk_2!30!0: y_0!6_1!5 - x_0!6 <= 0
 idk_2!30!1: y_0!6_1!5 - x_1!5 <= 0
 sum_2!31: y_0!1_1!6 - x_0!1 - x_1!6 >= -1
 idk_2!31!0: y_0!1_1!6 - x_0!1 <= 0
 idk_2!31!1: y_0!1_1!6 - x_1!6 <= 0
 sum_2!32: y_0!2_1!6 - x_0!2 - x_1!6 >= -1
 idk_2!32!0: y_0!2_1!6 - x_0!2 <= 0
 idk_2!32!1: y_0!2_1!6 - x_1!6 <= 0
 sum_2!33: y_0!3_1!6 - x_0!3 - x_1!6 >= -1
 idk_2!33!0: y_0!3_1!6 - x_0!3 <= 0
 idk_2!33!1: y_0!3_1!6 - x_1!6 <= 0
 sum_2!34: y_0!4_1!6 - x_0!4 - x_1!6 >= -1
 idk_2!34!0: y_0!4_1!6 - x_0!4 <= 0
 idk_2!34!1: y_0!4_1!6 - x_1!6 <= 0
 sum_2!35: y_0!5_1!6 - x_0!5 - x_1!6 >= -1
 idk_2!35!0: y_0!5_1!6 - x_0!5 <= 0
 idk_2!35!1: y_0!5_1!6 - x_1!6 <= 0
 sum_2!36: y_0!6_1!6 - x_0!6 - x_1!6 >= -1
 idk_2!36!0: y_0!6_1!6 - x_0!6 <= 0
 idk_2!36!1: y_0!6_1!6 - x_1!6 <= 0
Bounds
 mu_0 free
 mu_1 free
 mu_2 free
Binary
 x_0!1 x_0!2 x_0!3 x_0!4 x_0!5 x_0!6 x_1!1 x_1!2 x_1!3 x_1!4 x_1!5 x_1!6 x_2!1 x_2!2 x_2!3 x_2!4 x_2!5 x_2!6
End
